NAME: n40q25B.tsp, 40 nodes, semilla 111
COMMENT: Problema aleatorio de norma euclidea
DIMENSION: 40
CAPACITY: 25
EDGE_WEIGHT_TYPE: EUC_2D
NODE_COORD_SECTION
1   0.0000   0.0000
2 -355.0000 -98.0000
3 -243.0000 -186.0000
4 181.0000 394.0000
5 -229.0000 -332.0000
6  37.0000 -270.0000
7 -277.0000 -295.0000
8 416.0000 459.0000
9 -362.0000 -232.0000
10 -398.0000 355.0000
11 -21.0000  99.0000
12  72.0000 -354.0000
13 -405.0000 -366.0000
14 -67.0000 489.0000
15 302.0000 -433.0000
16 -239.0000 333.0000
17 -259.0000 372.0000
18  92.0000 -410.0000
19 -200.0000 367.0000
20 405.0000 -75.0000
21 329.0000 -292.0000
22 132.0000 -486.0000
23 -264.0000 355.0000
24 422.0000 -330.0000
25 -120.0000 212.0000
26 474.0000 176.0000
27 161.0000 -24.0000
28   7.0000 334.0000
29 391.0000 -318.0000
30 321.0000 -145.0000
31 164.0000 -482.0000
32 -420.0000 279.0000
33 178.0000 -207.0000
34 -232.0000  50.0000
35  68.0000 -166.0000
36 -122.0000 -284.0000
37 -267.0000 -242.0000
38 169.0000 -23.0000
39 264.0000 250.0000
40 440.0000 -480.0000
DISPLAY_DATA_SECTION:
 1  250  250
 2   72  201
 3  128  157
 4  340  447
 5  135   84
 6  268  115
 7  111  102
 8  458  479
 9   69  134
10   51  427
11  239  299
12  286   73
13   47   67
14  216  494
15  401   33
16  130  416
17  120  436
18  296   45
19  150  433
20  452  212
21  414  104
22  316    7
23  118  427
24  461   85
25  190  356
26  487  338
27  330  238
28  253  417
29  445   91
30  410  177
31  332    9
32   40  389
33  339  146
34  134  275
35  284  167
36  189  108
37  116  129
38  334  238
39  382  375
40  470   10
DEMAND_SECTION
1 1
2 4
3 3
4 5
5 -4
6 10
7 7
8 2
9 -8
10 4
11 -6
12 0
13 8
14 -6
15 -1
16 -3
17 -3
18 -5
19 -1
20 -8
21 -4
22 -8
23 -1
24 1
25 9
26 -6
27 -4
28 0
29 2
30 10
31 10
32 -1
33 -3
34 0
35 -6
36 -3
37 3
38 2
39 4
40 -4
EOF